; generated by Theta
; https://github.com/ftsrg/theta/

(set-logic HORN)

; declarations
(declare-fun main_init_0 ((_ BitVec 32) (_ BitVec 32) (_ BitVec 32) (_ FloatingPoint 11 53) (_ FloatingPoint 11 53) (_ BitVec 1) (_ BitVec 32) (_ FloatingPoint 11 53) (_ BitVec 32)) Bool)
(declare-fun main_final_2 ((_ BitVec 32) (_ BitVec 32) (_ BitVec 32) (_ FloatingPoint 11 53) (_ FloatingPoint 11 53) (_ BitVec 1) (_ BitVec 32) (_ FloatingPoint 11 53) (_ BitVec 32)) Bool)
(declare-fun __loc_113_1 ((_ BitVec 32) (_ BitVec 32) (_ BitVec 32) (_ FloatingPoint 11 53) (_ FloatingPoint 11 53) (_ BitVec 1) (_ BitVec 32) (_ FloatingPoint 11 53) (_ BitVec 32)) Bool)
(declare-fun __loc_142_4 ((_ BitVec 32) (_ BitVec 32) (_ BitVec 32) (_ FloatingPoint 11 53) (_ FloatingPoint 11 53) (_ BitVec 1) (_ BitVec 32) (_ FloatingPoint 11 53) (_ BitVec 32)) Bool)
(declare-fun __loc_50203_3 ((_ BitVec 32) (_ BitVec 32) (_ BitVec 32) (_ FloatingPoint 11 53) (_ FloatingPoint 11 53) (_ BitVec 1) (_ BitVec 32) (_ FloatingPoint 11 53) (_ BitVec 32)) Bool)
(declare-fun main_error_5 ((_ BitVec 32) (_ BitVec 32) (_ BitVec 32) (_ FloatingPoint 11 53) (_ FloatingPoint 11 53) (_ BitVec 1) (_ BitVec 32) (_ FloatingPoint 11 53) (_ BitVec 32)) Bool)

; facts, rules, queries
(assert (forall ((|main::i| (_ BitVec 32)) (|main_ret| (_ BitVec 32)) (|__VERIFIER_assert::cond| (_ BitVec 32)) (|main::E1| (_ FloatingPoint 11 53)) (|main::S| (_ FloatingPoint 11 53)) (|__VERIFIER_assert_ret| (_ BitVec 1)) (|call___VERIFIER_nondet_int_ret6| (_ BitVec 32)) (|main::E0| (_ FloatingPoint 11 53)) (|assume_abort_if_not::cond| (_ BitVec 32))) (=> true (main_init_0 |main::i| |main_ret| |__VERIFIER_assert::cond| |main::E1| |main::S| |__VERIFIER_assert_ret| |call___VERIFIER_nondet_int_ret6| |main::E0| |assume_abort_if_not::cond|))))
(assert (forall ((|main::i| (_ BitVec 32)) (|main_ret_new| (_ BitVec 32)) (|__VERIFIER_assert::cond| (_ BitVec 32)) (|main::E1| (_ FloatingPoint 11 53)) (|main::S| (_ FloatingPoint 11 53)) (|__VERIFIER_assert_ret| (_ BitVec 1)) (|call___VERIFIER_nondet_int_ret6| (_ BitVec 32)) (|main::E0| (_ FloatingPoint 11 53)) (|assume_abort_if_not::cond| (_ BitVec 32)) (|main_ret| (_ BitVec 32))) (=> (and (__loc_113_1 |main::i| |main_ret| |__VERIFIER_assert::cond| |main::E1| |main::S| |__VERIFIER_assert_ret| |call___VERIFIER_nondet_int_ret6| |main::E0| |assume_abort_if_not::cond|) (and (not (bvsle |main::i| #b00000000000011110100001001000000)) (= |main_ret_new| #b00000000000000000000000000000000))) (main_final_2 |main::i| |main_ret_new| |__VERIFIER_assert::cond| |main::E1| |main::S| |__VERIFIER_assert_ret| |call___VERIFIER_nondet_int_ret6| |main::E0| |assume_abort_if_not::cond|))))
(assert (forall ((|main::i_new| (_ BitVec 32)) (|main_ret| (_ BitVec 32)) (|__VERIFIER_assert::cond| (_ BitVec 32)) (|main::E1_new| (_ FloatingPoint 11 53)) (|main::S_new| (_ FloatingPoint 11 53)) (|__VERIFIER_assert_ret| (_ BitVec 1)) (|call___VERIFIER_nondet_int_ret6| (_ BitVec 32)) (|main::E0| (_ FloatingPoint 11 53)) (|assume_abort_if_not::cond| (_ BitVec 32)) (|main::i| (_ BitVec 32)) (|main::E1| (_ FloatingPoint 11 53)) (|main::S| (_ FloatingPoint 11 53))) (=> (and (main_init_0 |main::i| |main_ret| |__VERIFIER_assert::cond| |main::E1| |main::S| |__VERIFIER_assert_ret| |call___VERIFIER_nondet_int_ret6| |main::E0| |assume_abort_if_not::cond|) (and (and (= |main::E1_new| (fp #b0  #b00000000000 #b0000000000000000000000000000000000000000000000000000)) (= |main::S_new| (fp #b0  #b00000000000 #b0000000000000000000000000000000000000000000000000000))) (= |main::i_new| #b00000000000000000000000000000000))) (__loc_113_1 |main::i_new| |main_ret| |__VERIFIER_assert::cond| |main::E1_new| |main::S_new| |__VERIFIER_assert_ret| |call___VERIFIER_nondet_int_ret6| |main::E0| |assume_abort_if_not::cond|))))
(assert (forall ((|main::i_new| (_ BitVec 32)) (|main_ret| (_ BitVec 32)) (|__VERIFIER_assert::cond| (_ BitVec 32)) (|main::E1| (_ FloatingPoint 11 53)) (|main::S| (_ FloatingPoint 11 53)) (|__VERIFIER_assert_ret_new| (_ BitVec 1)) (|call___VERIFIER_nondet_int_ret6| (_ BitVec 32)) (|main::E0| (_ FloatingPoint 11 53)) (|assume_abort_if_not::cond| (_ BitVec 32)) (|main::i| (_ BitVec 32)) (|__VERIFIER_assert_ret| (_ BitVec 1))) (=> (and (__loc_50203_3 |main::i| |main_ret| |__VERIFIER_assert::cond| |main::E1| |main::S| |__VERIFIER_assert_ret| |call___VERIFIER_nondet_int_ret6| |main::E0| |assume_abort_if_not::cond|) (and (and (not (= |__VERIFIER_assert::cond| #b00000000000000000000000000000000)) (= |__VERIFIER_assert_ret_new| #b0)) (= |main::i_new| (bvadd |main::i| #b00000000000000000000000000000001)))) (__loc_113_1 |main::i_new| |main_ret| |__VERIFIER_assert::cond| |main::E1| |main::S| |__VERIFIER_assert_ret_new| |call___VERIFIER_nondet_int_ret6| |main::E0| |assume_abort_if_not::cond|))))
(assert (forall ((|main::i| (_ BitVec 32)) (|main_ret| (_ BitVec 32)) (|__VERIFIER_assert::cond| (_ BitVec 32)) (|main::E1| (_ FloatingPoint 11 53)) (|main::S| (_ FloatingPoint 11 53)) (|__VERIFIER_assert_ret| (_ BitVec 1)) (|call___VERIFIER_nondet_int_ret6_new| (_ BitVec 32)) (|main::E0_new| (_ FloatingPoint 11 53)) (|assume_abort_if_not::cond_new| (_ BitVec 32)) (|call___VERIFIER_nondet_int_ret6| (_ BitVec 32)) (|main::E0| (_ FloatingPoint 11 53)) (|assume_abort_if_not::cond| (_ BitVec 32))) (=> (and (__loc_113_1 |main::i| |main_ret| |__VERIFIER_assert::cond| |main::E1| |main::S| |__VERIFIER_assert_ret| |call___VERIFIER_nondet_int_ret6| |main::E0| |assume_abort_if_not::cond|) (and (and (and (and (and (and (bvsle |main::i| #b00000000000011110100001001000000) true) true) (= |assume_abort_if_not::cond_new| (ite (and (not (= #b00000000000000000000000000000000 (ite (fp.geq |main::E0_new| (fp.neg (fp #b0  #b01111111111 #b0000000000000000000000000000000000000000000000000000))) #b00000000000000000000000000000001 #b00000000000000000000000000000000))) (not (= #b00000000000000000000000000000000 (ite (fp.leq |main::E0_new| (fp #b0  #b01111111111 #b0000000000000000000000000000000000000000000000000000)) #b00000000000000000000000000000001 #b00000000000000000000000000000000)))) #b00000000000000000000000000000001 #b00000000000000000000000000000000))) (not (= |assume_abort_if_not::cond_new| #b00000000000000000000000000000000))) true) true)) (__loc_142_4 |main::i| |main_ret| |__VERIFIER_assert::cond| |main::E1| |main::S| |__VERIFIER_assert_ret| |call___VERIFIER_nondet_int_ret6_new| |main::E0_new| |assume_abort_if_not::cond_new|))))
(assert (forall ((|main::i| (_ BitVec 32)) (|main_ret| (_ BitVec 32)) (|__VERIFIER_assert::cond_new| (_ BitVec 32)) (|main::E1_new| (_ FloatingPoint 11 53)) (|main::S_new| (_ FloatingPoint 11 53)) (|__VERIFIER_assert_ret| (_ BitVec 1)) (|call___VERIFIER_nondet_int_ret6| (_ BitVec 32)) (|main::E0| (_ FloatingPoint 11 53)) (|assume_abort_if_not::cond| (_ BitVec 32)) (|__VERIFIER_assert::cond| (_ BitVec 32)) (|main::E1| (_ FloatingPoint 11 53)) (|main::S| (_ FloatingPoint 11 53))) (=> (and (__loc_142_4 |main::i| |main_ret| |__VERIFIER_assert::cond| |main::E1| |main::S| |__VERIFIER_assert_ret| |call___VERIFIER_nondet_int_ret6| |main::E0| |assume_abort_if_not::cond|) (and (and (and (not (= |call___VERIFIER_nondet_int_ret6| #b00000000000000000000000000000000)) (= |main::S_new| (fp #b0  #b00000000000 #b0000000000000000000000000000000000000000000000000000))) (= |main::E1_new| |main::E0|)) (= |__VERIFIER_assert::cond_new| (ite (and (not (= #b00000000000000000000000000000000 (ite (fp.geq |main::S_new| (fp.neg (fp #b0  #b10000001100 #b0011100010000000000000000000000000000000000000000000))) #b00000000000000000000000000000001 #b00000000000000000000000000000000))) (not (= #b00000000000000000000000000000000 (ite (fp.leq |main::S_new| (fp #b0  #b10000001100 #b0011100010000000000000000000000000000000000000000000)) #b00000000000000000000000000000001 #b00000000000000000000000000000000)))) #b00000000000000000000000000000001 #b00000000000000000000000000000000)))) (__loc_50203_3 |main::i| |main_ret| |__VERIFIER_assert::cond_new| |main::E1_new| |main::S_new| |__VERIFIER_assert_ret| |call___VERIFIER_nondet_int_ret6| |main::E0| |assume_abort_if_not::cond|))))
(assert (forall ((|main::i| (_ BitVec 32)) (|main_ret| (_ BitVec 32)) (|__VERIFIER_assert::cond_new| (_ BitVec 32)) (|main::E1_new| (_ FloatingPoint 11 53)) (|main::S_new| (_ FloatingPoint 11 53)) (|__VERIFIER_assert_ret| (_ BitVec 1)) (|call___VERIFIER_nondet_int_ret6| (_ BitVec 32)) (|main::E0| (_ FloatingPoint 11 53)) (|assume_abort_if_not::cond| (_ BitVec 32)) (|__VERIFIER_assert::cond| (_ BitVec 32)) (|main::E1| (_ FloatingPoint 11 53)) (|main::S| (_ FloatingPoint 11 53))) (=> (and (__loc_142_4 |main::i| |main_ret| |__VERIFIER_assert::cond| |main::E1| |main::S| |__VERIFIER_assert_ret| |call___VERIFIER_nondet_int_ret6| |main::E0| |assume_abort_if_not::cond|) (and (and (and (= |call___VERIFIER_nondet_int_ret6| #b00000000000000000000000000000000) (= |main::S_new| (fp.add RNE (fp.add RNE (fp.mul RNE (fp #b0  #b01111111110 #b1111111101111100111011011001000101101000011100101100) |main::S|) |main::E0|) (fp.neg |main::E1|)))) (= |main::E1_new| |main::E0|)) (= |__VERIFIER_assert::cond_new| (ite (and (not (= #b00000000000000000000000000000000 (ite (fp.geq |main::S_new| (fp.neg (fp #b0  #b10000001100 #b0011100010000000000000000000000000000000000000000000))) #b00000000000000000000000000000001 #b00000000000000000000000000000000))) (not (= #b00000000000000000000000000000000 (ite (fp.leq |main::S_new| (fp #b0  #b10000001100 #b0011100010000000000000000000000000000000000000000000)) #b00000000000000000000000000000001 #b00000000000000000000000000000000)))) #b00000000000000000000000000000001 #b00000000000000000000000000000000)))) (__loc_50203_3 |main::i| |main_ret| |__VERIFIER_assert::cond_new| |main::E1_new| |main::S_new| |__VERIFIER_assert_ret| |call___VERIFIER_nondet_int_ret6| |main::E0| |assume_abort_if_not::cond|))))
(assert (forall ((|main::i| (_ BitVec 32)) (|main_ret| (_ BitVec 32)) (|__VERIFIER_assert::cond| (_ BitVec 32)) (|main::E1| (_ FloatingPoint 11 53)) (|main::S| (_ FloatingPoint 11 53)) (|__VERIFIER_assert_ret| (_ BitVec 1)) (|call___VERIFIER_nondet_int_ret6| (_ BitVec 32)) (|main::E0| (_ FloatingPoint 11 53)) (|assume_abort_if_not::cond| (_ BitVec 32))) (=> (and (__loc_50203_3 |main::i| |main_ret| |__VERIFIER_assert::cond| |main::E1| |main::S| |__VERIFIER_assert_ret| |call___VERIFIER_nondet_int_ret6| |main::E0| |assume_abort_if_not::cond|) (= |__VERIFIER_assert::cond| #b00000000000000000000000000000000)) (main_error_5 |main::i| |main_ret| |__VERIFIER_assert::cond| |main::E1| |main::S| |__VERIFIER_assert_ret| |call___VERIFIER_nondet_int_ret6| |main::E0| |assume_abort_if_not::cond|))))
(assert (forall ((|main::i| (_ BitVec 32)) (|main_ret| (_ BitVec 32)) (|__VERIFIER_assert::cond| (_ BitVec 32)) (|main::E1| (_ FloatingPoint 11 53)) (|main::S| (_ FloatingPoint 11 53)) (|__VERIFIER_assert_ret| (_ BitVec 1)) (|call___VERIFIER_nondet_int_ret6| (_ BitVec 32)) (|main::E0| (_ FloatingPoint 11 53)) (|assume_abort_if_not::cond| (_ BitVec 32))) (=> (main_error_5 |main::i| |main_ret| |__VERIFIER_assert::cond| |main::E1| |main::S| |__VERIFIER_assert_ret| |call___VERIFIER_nondet_int_ret6| |main::E0| |assume_abort_if_not::cond|) false)))

(check-sat)
(exit)